c Generated map
c Size: 9 * 9, weights in range: 1 to 10, walls: False, with ratio 0.0
c dim 6 of 8
c
p sp 81 144
c graph contains 81 nodes and 144 arcs
c
a 1 10 3
a 10 1 3
a 1 2 3
a 2 1 3
a 2 11 7
a 11 2 7
a 2 3 7
a 3 2 7
a 3 12 6
a 12 3 6
a 3 4 6
a 4 3 6
a 4 13 4
a 13 4 4
a 4 5 3
a 5 4 3
a 5 14 3
a 14 5 3
a 5 6 3
a 6 5 3
a 6 15 4
a 15 6 4
a 6 7 5
a 7 6 5
a 7 16 7
a 16 7 7
a 7 8 1
a 8 7 1
a 8 17 7
a 17 8 7
a 8 9 4
a 9 8 4
a 9 18 1
a 18 9 1
a 10 19 7
a 19 10 7
a 10 11 7
a 11 10 7
a 11 20 3
a 20 11 3
a 11 12 8
a 12 11 8
a 12 21 10
a 21 12 10
a 12 13 1
a 13 12 1
a 13 22 1
a 22 13 1
a 13 14 5
a 14 13 5
a 14 23 9
a 23 14 9
a 14 15 8
a 15 14 8
a 15 24 7
a 24 15 7
a 15 16 2
a 16 15 2
a 16 25 9
a 25 16 9
a 16 17 10
a 17 16 10
a 17 26 7
a 26 17 7
a 17 18 9
a 18 17 9
a 18 27 6
a 27 18 6
a 19 28 5
a 28 19 5
a 19 20 2
a 20 19 2
a 20 29 7
a 29 20 7
a 20 21 5
a 21 20 5
a 21 30 7
a 30 21 7
a 21 22 5
a 22 21 5
a 22 31 4
a 31 22 4
a 22 23 1
a 23 22 1
a 23 32 3
a 32 23 3
a 23 24 2
a 24 23 2
a 24 33 3
a 33 24 3
a 24 25 1
a 25 24 1
a 25 34 7
a 34 25 7
a 25 26 3
a 26 25 3
a 26 35 8
a 35 26 8
a 26 27 8
a 27 26 8
a 27 36 10
a 36 27 10
a 28 37 8
a 37 28 8
a 28 29 5
a 29 28 5
a 29 38 4
a 38 29 4
a 29 30 10
a 30 29 10
a 30 39 4
a 39 30 4
a 30 31 3
a 31 30 3
a 31 40 3
a 40 31 3
a 31 32 2
a 32 31 2
a 32 41 6
a 41 32 6
a 32 33 10
a 33 32 10
a 33 42 9
a 42 33 9
a 33 34 7
a 34 33 7
a 34 43 10
a 43 34 10
a 34 35 9
a 35 34 9
a 35 44 9
a 44 35 9
a 35 36 8
a 36 35 8
a 36 45 3
a 45 36 3
a 37 46 10
a 46 37 10
a 37 38 5
a 38 37 5
a 38 47 7
a 47 38 7
a 38 39 10
a 39 38 10
a 39 48 8
a 48 39 8
a 39 40 6
a 40 39 6
a 40 49 3
a 49 40 3
a 40 41 1
a 41 40 1
a 41 50 9
a 50 41 9
a 41 42 3
a 42 41 3
a 42 51 4
a 51 42 4
a 42 43 4
a 43 42 4
a 43 52 6
a 52 43 6
a 43 44 7
a 44 43 7
a 44 53 3
a 53 44 3
a 44 45 9
a 45 44 9
a 45 54 6
a 54 45 6
a 46 55 7
a 55 46 7
a 46 47 3
a 47 46 3
a 47 56 9
a 56 47 9
a 47 48 9
a 48 47 9
a 48 57 1
a 57 48 1
a 48 49 5
a 49 48 5
a 49 58 4
a 58 49 4
a 49 50 3
a 50 49 3
a 50 59 4
a 59 50 4
a 50 51 6
a 51 50 6
a 51 60 8
a 60 51 8
a 51 52 3
a 52 51 3
a 52 61 3
a 61 52 3
a 52 53 1
a 53 52 1
a 53 62 3
a 62 53 3
a 53 54 6
a 54 53 6
a 54 63 4
a 63 54 4
a 55 64 8
a 64 55 8
a 55 56 6
a 56 55 6
a 56 65 9
a 65 56 9
a 56 57 2
a 57 56 2
a 57 66 6
a 66 57 6
a 57 58 10
a 58 57 10
a 58 67 3
a 67 58 3
a 58 59 4
a 59 58 4
a 59 68 2
a 68 59 2
a 59 60 1
a 60 59 1
a 60 69 7
a 69 60 7
a 60 61 5
a 61 60 5
a 61 70 5
a 70 61 5
a 61 62 3
a 62 61 3
a 62 71 2
a 71 62 2
a 62 63 6
a 63 62 6
a 63 72 5
a 72 63 5
a 64 73 4
a 73 64 4
a 64 65 7
a 65 64 7
a 65 74 7
a 74 65 7
a 65 66 10
a 66 65 10
a 66 75 7
a 75 66 7
a 66 67 10
a 67 66 10
a 67 76 7
a 76 67 7
a 67 68 7
a 68 67 7
a 68 77 2
a 77 68 2
a 68 69 4
a 69 68 4
a 69 78 9
a 78 69 9
a 69 70 5
a 70 69 5
a 70 79 6
a 79 70 6
a 70 71 1
a 71 70 1
a 71 80 3
a 80 71 3
a 71 72 1
a 72 71 1
a 72 81 7
a 81 72 7
a 73 74 5
a 74 73 5
a 74 75 9
a 75 74 9
a 75 76 8
a 76 75 8
a 76 77 1
a 77 76 1
a 77 78 6
a 78 77 6
a 78 79 10
a 79 78 10
a 79 80 10
a 80 79 10
a 80 81 5
a 81 80 5
